numCities = 5;
numLocations = 10;
numTypes = 3;
cityCoordinates = [
[0.05 0.27]
[0.08 0.99]
[0.08 0.15]
[0.45 0.28]
[0.89 0.50]
];
locationCoordinates = [
[0.27 0.02]
[0.22 0.97]
[0.26 0.42]
[0.27 0.36]
[0.26 0.42]
[0.46 0.30]
[0.29 0.45]
[0.82 0.08]
[0.39 0.97]
[0.97 0.37]
];
cityPopulation = [46 27 84 8 99 ];
d_center = 0.04;
typeCapacity = [40 71 10 ];
typeDistance = [0.05 0.90 0.63 ];
typeCost = [4 6 6 ];
